\ Model x6_copy
\ LP format - for model browsing. Use MPS format to capture full model detail.
Minimize
 
Subject To
 c_e_x9_: x1 + x2 - x5 = 1000
 c_e_x10_: x3 + x4 + x5 = 1000
Bounds
 -infinity <= x1 <= 500
 -infinity <= x2 <= 250
 -infinity <= x3 <= 250
 -infinity <= x4 <= 250
 x5 free
End
